TOUR_SECTION
74
18
36
146
149
169
100
109
24
200
49
133
97
6
76
150
51
87
31
162
10
105
29
157
103
196
153
141
90
66
9
40
186
131
144
123
61
154
21
135
52
197
56
156
187
89
142
28
37
12
88
3
126
167
48
121
160
127
95
164
128
181
32
122
93
67
120
2
161
143
60
46
140
179
59
92
11
104
119
68
83
91
86
145
96
69
118
191
173
71
47
58
108
17
115
30
15
163
33
34
41
39
101
7
110
111
22
94
174
165
199
124
35
138
189
178
137
53
72
195
23
129
77
84
166
65
63
27
20
70
168
193
13
54
190
171
192
188
98
44
130
73
79
183
185
194
43
134
50
8
106
5
175
182
125
176
151
116
172
62
139
148
80
81
55
16
85
113
198
99
112
26
64
4
102
38
42
170
57
159
158
132
180
107
75
78
25
114
1
152
19
155
136
14
82
177
45
117
147
184
-1
EOF